row=7;
Board=[|2,7,0,8,6,-1,5,-1,3,-1|9,1,4,3,2,-1,-1,0,8,5|8,6,0,7,1,-1,-1,5,-1,-1|-1,7,-1,5,-1,2,1,8,0,4|3,2,-1,1,-1,-1,-1,7,-1,8|-1,0,5,2,3,7,9,8,1,-1|-1,1,8,-1,-1,6,-1,5,7,-1|];
bottom=[46,24,26,30,27,35,31,37,26,33]